(set-info :min-time 26.226170237)
; Start decls (43)
(declare-fun b100 () (_ FloatingPoint 8 24))
(declare-fun b103 () (_ FloatingPoint 8 24))
(declare-fun b106 () (_ FloatingPoint 8 24))
(declare-fun b109 () (_ FloatingPoint 8 24))
(declare-fun b11 () (_ FloatingPoint 8 24))
(declare-fun b112 () (_ FloatingPoint 8 24))
(declare-fun b115 () (_ FloatingPoint 8 24))
(declare-fun b118 () (_ FloatingPoint 8 24))
(declare-fun b121 () (_ FloatingPoint 8 24))
(declare-fun b124 () (_ FloatingPoint 8 24))
(declare-fun b127 () (_ FloatingPoint 8 24))
(declare-fun b13 () (_ FloatingPoint 8 24))
(declare-fun b131 () (_ FloatingPoint 11 53))
(declare-fun b16 () (_ FloatingPoint 8 24))
(declare-fun b19 () (_ FloatingPoint 8 24))
(declare-fun b219 () (_ FloatingPoint 8 24))
(declare-fun b22 () (_ FloatingPoint 8 24))
(declare-fun b222 () (_ FloatingPoint 8 24))
(declare-fun b25 () (_ FloatingPoint 8 24))
(declare-fun b28 () (_ FloatingPoint 8 24))
(declare-fun b31 () (_ FloatingPoint 8 24))
(declare-fun b34 () (_ FloatingPoint 8 24))
(declare-fun b37 () (_ FloatingPoint 8 24))
(declare-fun b40 () (_ FloatingPoint 8 24))
(declare-fun b43 () (_ FloatingPoint 8 24))
(declare-fun b46 () (_ FloatingPoint 8 24))
(declare-fun b49 () (_ FloatingPoint 8 24))
(declare-fun b52 () (_ FloatingPoint 8 24))
(declare-fun b55 () (_ FloatingPoint 8 24))
(declare-fun b58 () (_ FloatingPoint 8 24))
(declare-fun b61 () (_ FloatingPoint 8 24))
(declare-fun b64 () (_ FloatingPoint 8 24))
(declare-fun b67 () (_ FloatingPoint 8 24))
(declare-fun b70 () (_ FloatingPoint 8 24))
(declare-fun b73 () (_ FloatingPoint 8 24))
(declare-fun b76 () (_ FloatingPoint 8 24))
(declare-fun b79 () (_ FloatingPoint 8 24))
(declare-fun b82 () (_ FloatingPoint 8 24))
(declare-fun b85 () (_ FloatingPoint 8 24))
(declare-fun b88 () (_ FloatingPoint 8 24))
(declare-fun b91 () (_ FloatingPoint 8 24))
(declare-fun b94 () (_ FloatingPoint 8 24))
(declare-fun b97 () (_ FloatingPoint 8 24))
; End decls
; Start constraints (81)
(assert (fp.lt b219 b11))
(assert (let ((a!1 (fp.mul roundNearestTiesToEven
                   (fp.mul roundNearestTiesToEven
                           (fp.mul roundNearestTiesToEven
                                   (fp.mul roundNearestTiesToEven b11 b13)
                                   b16)
                           b19)
                   b22)))
(let ((a!2 (fp.mul roundNearestTiesToEven
                   (fp.mul roundNearestTiesToEven
                           (fp.mul roundNearestTiesToEven
                                   (fp.mul roundNearestTiesToEven a!1 b25)
                                   b28)
                           b31)
                   b34)))
(let ((a!3 (fp.mul roundNearestTiesToEven
                   (fp.mul roundNearestTiesToEven
                           (fp.mul roundNearestTiesToEven
                                   (fp.mul roundNearestTiesToEven a!2 b37)
                                   b40)
                           b43)
                   b46)))
(let ((a!4 (fp.mul roundNearestTiesToEven
                   (fp.mul roundNearestTiesToEven
                           (fp.mul roundNearestTiesToEven
                                   (fp.mul roundNearestTiesToEven a!3 b49)
                                   b52)
                           b55)
                   b58)))
(let ((a!5 (fp.mul roundNearestTiesToEven
                   (fp.mul roundNearestTiesToEven
                           (fp.mul roundNearestTiesToEven
                                   (fp.mul roundNearestTiesToEven a!4 b61)
                                   b64)
                           b67)
                   b70)))
(let ((a!6 (fp.mul roundNearestTiesToEven
                   (fp.mul roundNearestTiesToEven
                           (fp.mul roundNearestTiesToEven
                                   (fp.mul roundNearestTiesToEven a!5 b73)
                                   b76)
                           b79)
                   b82)))
(let ((a!7 (fp.mul roundNearestTiesToEven
                   (fp.mul roundNearestTiesToEven
                           (fp.mul roundNearestTiesToEven
                                   (fp.mul roundNearestTiesToEven a!6 b85)
                                   b88)
                           b91)
                   b94)))
(let ((a!8 (fp.mul roundNearestTiesToEven
                   (fp.mul roundNearestTiesToEven
                           (fp.mul roundNearestTiesToEven
                                   (fp.mul roundNearestTiesToEven a!7 b97)
                                   b100)
                           b103)
                   b106)))
(let ((a!9 (fp.mul roundNearestTiesToEven
                   (fp.mul roundNearestTiesToEven
                           (fp.mul roundNearestTiesToEven
                                   (fp.mul roundNearestTiesToEven a!8 b109)
                                   b112)
                           b115)
                   b118)))
(let ((a!10 ((_ to_fp 11 53)
              roundNearestTiesToEven
              (fp.mul roundNearestTiesToEven
                      (fp.mul roundNearestTiesToEven
                              (fp.mul roundNearestTiesToEven a!9 b121)
                              b124)
                      b127))))
  (fp.lt b131 a!10))))))))))))
(assert (fp.lt b11 b222))
(assert (fp.lt b219 b13))
(assert (fp.lt b13 b222))
(assert (fp.lt b219 b16))
(assert (fp.lt b16 b222))
(assert (fp.lt b219 b19))
(assert (fp.lt b19 b222))
(assert (fp.lt b219 b22))
(assert (fp.lt b22 b222))
(assert (fp.lt b219 b25))
(assert (fp.lt b25 b222))
(assert (fp.lt b219 b28))
(assert (fp.lt b28 b222))
(assert (fp.lt b219 b31))
(assert (fp.lt b31 b222))
(assert (fp.lt b219 b34))
(assert (fp.lt b34 b222))
(assert (fp.lt b219 b37))
(assert (fp.lt b37 b222))
(assert (fp.lt b219 b40))
(assert (fp.lt b40 b222))
(assert (fp.lt b219 b43))
(assert (fp.lt b43 b222))
(assert (fp.lt b219 b46))
(assert (fp.lt b46 b222))
(assert (fp.lt b219 b49))
(assert (fp.lt b49 b222))
(assert (fp.lt b219 b52))
(assert (fp.lt b52 b222))
(assert (fp.lt b219 b55))
(assert (fp.lt b55 b222))
(assert (fp.lt b219 b58))
(assert (fp.lt b58 b222))
(assert (fp.lt b219 b61))
(assert (fp.lt b61 b222))
(assert (fp.lt b219 b64))
(assert (fp.lt b64 b222))
(assert (fp.lt b219 b67))
(assert (fp.lt b67 b222))
(assert (fp.lt b219 b70))
(assert (fp.lt b70 b222))
(assert (fp.lt b219 b73))
(assert (fp.lt b73 b222))
(assert (fp.lt b219 b76))
(assert (fp.lt b76 b222))
(assert (fp.lt b219 b79))
(assert (fp.lt b79 b222))
(assert (fp.lt b219 b82))
(assert (fp.lt b82 b222))
(assert (fp.lt b219 b85))
(assert (fp.lt b85 b222))
(assert (fp.lt b219 b88))
(assert (fp.lt b88 b222))
(assert (fp.lt b219 b91))
(assert (fp.lt b91 b222))
(assert (fp.lt b219 b94))
(assert (fp.lt b94 b222))
(assert (fp.lt b219 b97))
(assert (fp.lt b97 b222))
(assert (fp.lt b219 b100))
(assert (fp.lt b100 b222))
(assert (fp.lt b219 b103))
(assert (fp.lt b103 b222))
(assert (fp.lt b219 b106))
(assert (fp.lt b106 b222))
(assert (fp.lt b219 b109))
(assert (fp.lt b109 b222))
(assert (fp.lt b219 b112))
(assert (fp.lt b112 b222))
(assert (fp.lt b219 b115))
(assert (fp.lt b115 b222))
(assert (fp.lt b219 b118))
(assert (fp.lt b118 b222))
(assert (fp.lt b219 b121))
(assert (fp.lt b121 b222))
(assert (fp.lt b219 b124))
(assert (fp.lt b124 b222))
(assert (fp.lt b219 b127))
(assert (fp.lt b127 b222))
; End constraints
(check-sat)
